c status 214 1469392697045
c status 140 1469392697059
c status 130 1469392697365
c status 129 1469392697486
c status 128 1469392697510
c status 126 1469392697570
c status 125 1469392701679
c status 124 1469392763051
s td 61 124 256
b 1 18 12 10 11 13 35 9 193 8 91 188 27 22 179 36 24 23 198 26 21 231 229 208 250 15 37 19 251 59 20 216 234 38 252 79 158 54 72 213 212 56 75
b 2 32 33 12 31 10 11 30 35 28 188 42 39 46 194 246 44 43 176 45 71 227 51 247 223 52 37 243 34 230 249 113 68 50 38 40 102 73 207 212 17
b 3 33 12 31 10 11 13 30 35 28 114 188 42 39 46 194 246 44 43 176 45 204 71 231 227 70 51 247 208 250 225 223 52 228 244 248 74 37 243 34 230 249 113 177 3 180 195 68 50 38 40 214 189 102 54 72 73 207 212 17 29
b 4 12 31 10 11 13 30 35 9 193 184 28 8 114 91 188 27 42 39 46 22 179 194 246 36 24 44 23 43 198 176 45 26 21 55 204 205 71 231 229 227 70 51 247 208 250 225 223 52 228 244 248 74 15 37 19 226 243 34 230 249 251 113 177 3 180 195 59 20 216 234 68 50 38 40 252 214 79 189 158 102 54 72 73 213 207 212 56 75 17 29
b 5 31 10 11 13 30 35 9 193 184 49 28 8 114 91 188 27 42 39 46 22 179 194 246 36 24 44 23 43 198 176 45 26 21 55 204 242 205 71 231 229 227 70 51 247 208 250 225 223 67 52 228 244 206 211 248 74 15 37 19 226 243 34 230 249 251 113 177 3 235 180 195 59 20 216 234 68 50 38 40 252 214 79 189 158 102 54 72 73 213 169 207 187 212 56 75 221 4 17 29
b 6 10 11 13 30 35 9 193 184 49 28 8 114 91 188 27 42 39 46 22 179 194 246 36 24 44 23 43 198 176 45 26 21 55 204 242 205 48 71 231 229 227 70 51 247 208 250 225 223 67 52 228 244 206 211 248 74 15 37 210 19 226 243 34 230 249 251 113 177 3 235 180 195 59 20 216 234 68 50 38 40 252 214 79 189 192 158 102 54 72 73 213 169 207 187 224 212 56 75 209 221 4 17 29
b 7 69 80 136 186 13 35 184 28 8 114 91 179 182 176 183 204 242 48 227 223 67 206 248 177 76 178 181 125 158 102 169 56 1
b 8 80 136 186 13 30 35 9 184 49 28 8 114 91 179 182 176 183 204 242 205 48 227 225 223 67 228 206 248 15 37 243 249 177 57 68 76 78 178 181 125 158 102 169 207 187 56 1
b 9 190 136 186 13 9 193 184 28 114 188 194 200 201 203 198 231 229 227 208 244 211 210 34 249 113 195 61 20 40 252 189 192 199 125 54 82 73 213 187 196 191
b 10 136 186 13 30 35 9 193 184 49 28 8 114 91 188 22 179 182 194 200 43 201 203 198 176 183 55 204 242 205 48 231 229 227 208 250 225 223 67 228 244 206 211 248 74 15 37 210 243 34 230 249 63 113 177 195 61 20 234 254 57 68 76 40 252 84 78 214 189 192 202 178 181 199 125 158 102 54 82 73 213 169 207 187 196 191 56 1
b 11 186 13 30 35 9 193 184 49 28 8 114 91 188 22 179 182 194 200 43 201 203 198 176 183 55 204 242 205 48 231 229 227 208 250 225 223 67 228 244 206 211 248 74 15 37 210 243 34 230 249 63 113 177 195 61 20 234 254 57 68 76 40 252 84 78 214 189 192 202 178 181 199 125 158 102 54 82 73 213 169 207 187 196 191 56 2 1
b 12 13 30 35 9 193 184 49 28 8 114 91 188 27 42 39 46 22 179 182 194 246 36 200 24 44 23 43 201 203 198 176 183 45 26 21 55 204 242 205 48 71 231 229 227 70 51 247 208 250 225 223 67 52 228 244 206 211 248 74 15 37 210 19 226 243 34 230 249 251 63 113 177 3 235 180 195 59 61 20 216 234 254 57 68 50 76 38 40 252 84 78 214 79 189 192 202 178 181 199 125 158 102 54 82 72 73 213 169 207 187 196 224 191 212 56 75 2 209 221 4 17 29 1
b 13 30 35 9 193 184 49 28 8 114 91 188 27 42 39 46 22 179 182 194 246 36 200 24 44 23 43 201 203 198 176 183 45 26 21 55 204 242 205 48 71 231 229 227 70 51 247 208 250 225 223 67 52 228 244 206 211 248 74 15 37 210 19 226 243 34 230 249 251 63 113 177 3 235 180 195 59 61 20 216 234 254 57 68 50 76 38 40 252 84 78 214 79 189 192 202 178 181 199 125 158 102 54 82 72 73 213 169 207 187 196 224 191 212 56 75 2 209 221 16 245 4 17 29 1
b 14 9 193 184 49 28 8 114 91 188 27 42 39 46 22 179 182 194 246 36 200 24 44 23 43 201 203 198 176 183 45 26 21 55 204 242 205 48 71 231 229 227 70 51 247 208 250 225 223 67 52 228 244 206 211 248 74 15 37 210 19 226 243 34 230 249 251 63 113 177 3 235 180 195 59 61 20 216 234 254 57 68 50 76 38 40 252 84 78 214 79 189 192 202 178 181 199 125 158 102 54 82 72 73 213 169 207 187 196 224 191 212 56 75 2 197 209 221 16 245 4 17 29 1
b 15 49 28 8 114 91 188 27 42 39 46 22 179 182 194 246 36 200 24 44 23 43 201 203 198 176 183 45 26 21 55 204 242 205 48 71 231 229 227 70 51 247 208 250 225 223 67 52 228 244 206 211 248 74 15 37 210 19 226 243 34 230 249 251 64 62 63 66 113 177 3 235 180 195 59 61 20 216 234 254 57 68 50 76 38 40 252 84 78 214 79 189 192 202 178 181 199 125 158 102 54 82 72 73 213 169 207 187 196 224 191 212 56 60 75 2 197 209 221 16 245 4 17 29 1
b 16 28 8 114 91 188 27 42 39 46 22 179 182 194 246 36 200 24 44 23 43 201 203 198 176 183 45 26 21 55 204 242 205 48 71 231 229 227 70 51 247 208 250 225 223 67 52 228 244 206 211 248 74 15 37 210 19 226 243 34 230 249 251 64 62 63 66 113 177 3 235 180 195 59 61 20 216 234 254 57 68 50 76 38 40 252 84 78 214 79 189 192 202 178 181 199 125 158 102 54 82 72 73 213 169 207 187 196 224 191 212 56 60 75 2 197 209 221 16 245 4 17 29 233 1
b 17 8 114 91 188 27 42 39 46 22 179 182 194 246 36 200 24 44 23 43 201 203 198 176 183 45 26 21 55 204 242 205 48 71 231 229 227 70 51 247 208 250 225 223 67 52 228 244 206 211 248 74 15 37 210 19 226 243 34 230 249 251 64 62 63 66 113 177 3 235 180 195 59 61 20 216 234 254 57 68 50 76 38 40 252 84 78 214 79 189 192 202 178 181 199 125 158 102 54 82 72 73 213 169 207 187 196 224 191 212 56 60 75 2 185 197 209 221 16 245 4 17 29 233 1
b 18 188 27 42 39 46 22 179 182 194 246 36 200 24 44 23 43 201 203 198 176 183 45 26 21 55 204 242 205 48 71 231 229 227 70 51 247 208 250 225 223 67 52 228 244 206 211 248 74 15 37 210 19 226 243 34 230 249 251 64 62 63 66 113 177 3 235 180 195 59 61 20 216 234 254 57 68 50 76 38 40 252 84 78 214 79 189 192 202 178 181 199 125 158 102 54 82 72 73 213 169 207 187 196 224 191 212 56 60 75 2 147 185 197 209 221 16 245 4 17 29 233 1
b 19 6 220 5 241 256 239 7 47 240 218 255 253 27 182 24 43 201 198 45 26 242 247 250 244 248 243 249 251 64 177 235 61 254 252 84 79 209
b 20 219 220 5 239 7 215 217 240 222 218 255 238 39 246 36 200 24 44 201 183 21 204 205 208 206 211 210 63 216 57 214 178 181 199 83 207 212 75 197
b 21 220 5 241 256 239 7 215 217 47 240 222 218 255 253 238 27 39 22 179 182 246 36 200 24 44 43 201 203 198 183 45 26 21 204 242 205 247 208 250 244 206 211 248 210 243 249 251 64 63 177 3 235 59 61 216 254 57 76 40 252 84 214 79 178 181 199 83 207 212 75 197 209
b 22 5 241 256 239 7 215 217 47 240 222 218 255 253 238 27 42 39 46 22 179 182 246 36 200 24 44 23 43 201 203 198 176 183 45 26 21 204 242 205 247 208 250 244 206 211 248 210 243 249 251 64 63 177 3 235 59 61 216 254 57 76 40 252 84 78 214 79 178 181 199 83 207 196 224 212 60 75 197 209
b 23 237 232 58 241 256 239 217 240 218 255 238 236 42 22 182 200 24 198 45 231 229 227 225 223 228 74 226 230 66 3 195 61 20 216 234 254 38 178 81 213 169 56 147
b 24 232 14 58 241 256 239 215 217 240 218 255 253 238 236 42 22 182 194 200 24 198 45 21 71 231 229 227 225 223 52 228 74 15 19 226 34 230 251 62 66 3 180 195 61 20 216 234 254 57 76 38 252 214 192 178 125 83 81 213 169 196 224 212 56 147
b 25 14 58 241 256 239 215 217 47 240 222 218 255 253 238 236 42 22 179 182 194 246 36 200 24 23 43 201 198 45 21 71 231 229 227 225 223 52 228 74 15 19 226 34 230 251 62 66 113 3 235 180 195 61 20 216 234 254 57 76 38 252 214 192 202 178 181 199 125 83 81 82 213 169 196 224 191 212 56 147
b 26 85 58 241 7 215 222 255 236 27 46 194 44 23 203 183 71 70 67 74 64 66 68 76 84 78 79 202 158 83 81 82 72 73 75 221 245 1
b 27 58 241 256 239 7 215 217 47 240 222 218 255 253 238 236 27 42 46 22 179 182 194 246 36 200 24 44 23 43 201 203 198 183 45 21 71 231 229 227 70 225 223 67 52 228 74 15 19 226 34 230 251 64 62 66 113 3 235 180 195 61 20 216 234 254 57 68 76 38 252 84 78 214 79 192 202 178 181 199 125 158 83 81 82 72 73 213 169 196 224 191 212 56 75 2 147 221 245 1
b 28 241 256 239 7 215 217 47 240 222 218 255 253 238 236 27 42 39 46 22 179 182 194 246 36 200 24 44 23 43 201 203 198 176 183 45 26 21 204 242 205 71 231 229 227 70 247 208 250 225 223 67 52 228 244 206 211 248 74 15 210 19 226 243 34 230 249 251 64 62 63 66 113 177 3 235 180 195 59 61 20 216 234 254 57 68 76 38 40 252 84 78 214 79 192 202 178 181 199 125 158 83 81 82 72 73 213 169 207 196 224 191 212 56 60 75 2 147 197 209 221 245 1
b 29 256 239 7 215 217 47 240 222 218 255 253 238 236 27 42 39 46 22 179 182 194 246 36 200 24 44 23 43 201 203 198 176 183 45 26 21 204 242 205 71 231 229 227 70 247 208 250 225 223 67 52 228 244 206 211 248 74 15 210 19 226 243 34 230 249 251 64 62 63 66 113 177 3 235 180 195 59 61 20 216 234 254 57 68 76 38 40 252 84 78 214 79 192 202 178 181 199 125 158 83 81 82 72 73 213 169 207 196 224 191 212 56 60 75 2 147 185 197 209 221 245 1
b 30 217 47 240 222 218 255 253 238 236 27 42 39 46 22 179 182 194 246 36 200 24 44 23 43 201 203 198 176 183 45 26 21 55 204 242 205 71 231 229 227 70 247 208 250 225 223 67 52 228 244 206 211 248 74 15 37 210 19 226 243 34 230 249 251 64 62 63 66 113 177 3 235 180 195 59 61 20 216 234 254 57 68 76 38 40 252 84 78 214 79 192 202 178 181 199 125 158 83 81 82 72 73 213 169 207 196 224 191 212 56 60 75 2 147 185 197 209 221 245 1
b 31 236 27 42 39 46 22 179 182 194 246 36 200 24 44 23 43 201 203 198 176 183 45 26 21 55 204 242 205 71 231 229 227 70 247 208 250 225 223 67 52 228 244 206 211 248 74 15 37 210 19 226 243 34 230 249 251 64 62 63 66 113 177 3 235 180 195 59 61 20 216 234 254 57 68 76 38 40 252 84 78 214 79 192 202 178 181 199 125 158 83 81 82 72 73 213 169 207 196 224 191 212 56 60 75 2 25 147 185 197 209 221 245 1
b 32 27 42 39 46 22 179 182 194 246 36 200 24 44 23 43 201 203 198 176 183 45 26 21 55 204 242 205 48 71 231 229 227 70 51 247 208 250 225 223 67 52 228 244 206 211 248 74 15 37 210 19 226 243 34 230 249 251 64 62 63 66 113 177 3 235 180 195 59 61 20 216 234 254 57 68 50 76 38 40 252 84 78 214 79 189 192 202 178 181 199 125 158 102 54 83 81 82 72 73 213 169 207 187 196 224 191 212 56 60 75 2 25 147 185 197 209 221 16 245 4 17 29 233 1
b 33 55 204 242 205 48 71 231 229 227 70 51 247 208 250 225 223 67 52 228 244 206 211 248 74 15 37 210 19 226 243 34 230 249 251 64 62 63 66 113 177 3 235 180 195 59 61 20 216 234 254 57 68 50 76 38 40 252 84 78 214 79 189 192 202 178 181 199 125 158 102 54 83 81 82 72 73 213 169 207 187 196 224 191 212 56 60 75 2 25 147 185 197 209 221 16 245 4 17 29 53 233 1
b 34 54 83 81 82 72 73 213 169 207 187 196 224 191 212 56 60 75 2 25 147 185 197 209 221 16 245 4 17 29 41 53 233 1
b 35 77 87 89 93 86 88 92 94 124 127 148 106 163 168 141 65 144 122 159 104 105 2 245 4 17 29 41 53 233
b 36 87 89 93 86 88 92 94 130 124 127 148 150 106 107 171 163 168 166 108 141 65 144 146 122 159 161 143 104 105 2 25 147 245 4 17 29 41 53 233
b 37 89 93 86 88 92 94 130 132 124 127 149 148 150 153 106 107 109 110 171 163 168 166 108 141 65 144 145 146 122 159 161 143 104 105 2 25 147 185 197 245 4 17 29 41 53 233
b 38 93 86 88 92 94 130 132 124 127 149 148 151 150 153 106 107 109 110 112 171 163 168 166 111 108 141 65 144 145 146 122 159 161 143 104 105 2 25 147 185 197 209 221 245 4 17 29 41 53 233
b 39 131 126 129 133 88 92 94 130 132 124 127 149 151 150 109 110 167 170 172 111 115 117 123 119 120 118 121 122 25 197
b 40 126 129 133 86 88 92 94 130 132 124 127 149 151 150 106 107 109 110 167 170 172 111 115 117 123 119 120 118 121 65 144 145 146 122 105 165 162 2 25 185 197
b 41 129 133 86 88 92 94 130 132 124 127 149 148 151 150 106 107 109 110 167 170 172 111 108 115 117 123 119 120 118 121 65 144 145 146 122 105 165 162 2 25 147 185 197 209
b 42 133 86 88 92 94 130 132 124 127 149 148 151 150 153 106 107 109 110 112 167 170 172 111 108 115 117 123 119 120 118 121 65 144 145 146 122 105 165 162 2 25 147 185 197 209 221
b 43 86 88 92 94 130 132 124 127 149 148 151 150 153 106 107 109 110 112 171 163 167 168 166 170 172 111 108 115 117 123 141 119 120 142 118 121 65 144 145 146 122 160 159 161 143 104 105 165 162 2 25 147 185 197 209 221 245 4 17 29 41 53 233
b 44 149 148 151 150 153 106 107 109 110 112 171 163 167 168 166 170 172 111 108 115 117 123 138 139 141 119 120 142 134 135 137 118 121 65 144 145 146 122 160 159 161 143 104 105 165 162 2 25 147 185 197 209 221 245 4 17 29 41 53 233
b 45 95 97 96 98 99 100 101 90 157 173 154 106 107 109 110 112 111 108 115 117 134 137 104 105 245 233 1
b 46 97 96 98 99 100 101 90 157 173 154 156 175 106 107 109 110 112 111 108 115 117 139 119 134 137 118 160 104 105 245 4 17 233 1
b 47 96 98 99 100 101 90 157 173 174 155 154 156 175 106 107 109 110 112 111 108 115 117 138 139 119 134 135 137 118 160 159 104 105 16 245 4 17 233 1
b 48 98 99 100 101 90 157 173 174 155 154 156 175 106 107 109 110 112 111 108 115 117 138 139 141 119 120 134 135 137 118 160 159 161 104 105 16 245 4 17 29 233 1
b 49 99 100 101 90 157 173 174 155 154 156 175 106 107 109 110 112 111 108 115 117 138 139 141 119 120 142 134 135 137 118 121 160 159 161 104 105 162 16 245 4 17 29 41 233 1
b 50 100 101 90 157 173 174 155 154 156 175 106 107 109 110 112 163 111 108 115 117 138 139 141 119 120 142 134 135 137 118 121 122 160 159 161 143 104 105 162 16 245 4 17 29 41 53 233 1
b 51 101 90 157 173 174 155 154 156 175 106 107 109 110 112 163 111 108 115 117 123 138 139 141 119 120 142 134 135 137 118 121 65 144 122 160 159 161 143 104 105 165 162 16 245 4 17 29 41 53 233 1
b 52 103 116 128 140 152 164 90 157 163 115 138 119 122 143 16 1
b 53 116 128 140 152 164 90 157 163 115 117 123 138 139 119 120 134 144 122 159 143 165 16 1
b 54 128 140 152 164 90 157 154 163 166 115 117 123 138 139 141 119 120 134 135 144 145 122 160 159 143 165 16 1
b 55 140 152 164 90 157 173 155 154 163 167 166 115 117 123 138 139 141 119 120 142 134 135 144 145 146 122 160 159 161 143 165 16 1
b 56 152 164 90 157 173 174 155 154 156 163 167 168 166 115 117 123 138 139 141 119 120 142 134 135 144 145 146 122 160 159 161 143 165 162 16 1
b 57 164 90 157 173 174 155 154 156 175 163 167 168 166 170 115 117 123 138 139 141 119 120 142 134 135 144 145 146 122 160 159 161 143 165 162 16 1
b 58 90 157 173 174 155 154 156 175 106 107 109 110 112 163 167 168 166 170 111 108 115 117 123 138 139 141 119 120 142 134 135 137 118 121 65 144 145 146 122 160 159 161 143 104 105 165 162 16 245 4 17 29 41 53 233 1
b 59 157 173 174 155 154 156 175 106 107 109 110 112 171 163 167 168 166 170 172 111 108 115 117 123 138 139 141 119 120 142 134 135 137 118 121 65 144 145 146 122 160 159 161 143 104 105 165 162 16 245 4 17 29 41 53 233 1
b 60 106 107 109 110 112 171 163 167 168 166 170 172 111 108 115 117 123 138 139 141 119 120 142 134 135 137 118 121 65 144 145 146 122 160 159 161 143 104 105 165 162 2 25 147 185 197 209 221 16 245 4 17 29 41 53 233 1
b 61 65 144 145 146 122 160 159 161 143 104 105 165 162 75 2 25 147 185 197 209 221 16 245 4 17 29 41 53 233 1
1 4
4 5
5 6
6 12
12 13
13 14
14 15
15 16
16 17
17 18
18 32
32 31
31 30
30 29
29 28
32 33
28 27
12 11
11 10
28 22
27 25
22 21
25 24
4 3
10 8
24 23
10 9
3 2
21 20
27 26
21 19
33 34
8 7
34 61
61 60
60 44
44 43
60 59
59 58
58 51
43 38
51 50
43 42
38 37
50 49
42 41
49 48
41 40
37 36
48 47
58 57
57 56
47 46
56 55
40 39
36 35
55 54
46 45
54 53
53 52
